(set-option :produce-models true); benchmark generated from python API
(set-info :status unknown)
(declare-fun l_0_0_9 () Real)
(declare-fun l_0_0_8 () Real)
(declare-fun l_0_0_3 () Real)
(declare-fun l_0_0_2 () Real)
(declare-fun _a_0_ () Real)
(declare-fun l_0_0_6 () Real)
(declare-fun l_0_0_5 () Real)
(declare-fun l_0_0_4 () Real)
(declare-fun l_0_0_12 () Real)
(declare-fun l_0_0_11 () Real)
(declare-fun l_0_0_10 () Real)
(declare-fun _a_1_ () Real)
(declare-fun _a_2_ () Real)
(declare-fun l_0_0_7 () Real)
(declare-fun l_0_0_1 () Real)
(declare-fun _a_3_ () Real)
(declare-fun _a_4_ () Real)
(declare-fun _a_5_ () Real)
(declare-fun l_0_1_9 () Real)
(declare-fun l_0_1_8 () Real)
(declare-fun l_0_1_15 () Real)
(declare-fun l_0_1_14 () Real)
(declare-fun l_0_1_3 () Real)
(declare-fun l_0_1_2 () Real)
(declare-fun l_0_1_18 () Real)
(declare-fun l_0_1_17 () Real)
(declare-fun l_0_1_16 () Real)
(declare-fun l_0_1_12 () Real)
(declare-fun l_0_1_11 () Real)
(declare-fun l_0_1_10 () Real)
(declare-fun l_0_1_5 () Real)
(declare-fun l_0_1_4 () Real)
(declare-fun l_0_1_6 () Real)
(declare-fun l_0_1_7 () Real)
(declare-fun l_0_1_13 () Real)
(declare-fun l_0_1_1 () Real)
(declare-fun l_0_2_9 () Real)
(declare-fun l_0_2_8 () Real)
(declare-fun l_0_2_15 () Real)
(declare-fun l_0_2_14 () Real)
(declare-fun l_0_2_3 () Real)
(declare-fun l_0_2_2 () Real)
(declare-fun l_0_2_7 () Real)
(declare-fun l_0_2_13 () Real)
(declare-fun l_0_2_1 () Real)
(declare-fun l_0_2_16 () Real)
(declare-fun l_0_2_10 () Real)
(declare-fun l_0_2_5 () Real)
(declare-fun l_0_2_4 () Real)
(declare-fun l_0_2_18 () Real)
(declare-fun l_0_2_17 () Real)
(declare-fun l_0_2_12 () Real)
(declare-fun l_0_2_11 () Real)
(declare-fun l_0_2_6 () Real)
(assert
 (let ((?x68 (* l_0_0_9 l_0_0_9)))
 (let ((?x66 (* l_0_0_8 l_0_0_8)))
 (let ((?x65 (- (- _a_0_ (* (* (/ 1.0 8.0) l_0_0_2) l_0_0_2)) (* (* (/ 1.0 8.0) l_0_0_3) l_0_0_3))))
 (= (- (- ?x65 ?x66) ?x68) 0.0)))))
(assert
 (let ((?x98 (* l_0_0_3 l_0_0_3)))
 (let ((?x123 (* (* 2.0 l_0_0_3) l_0_0_5)))
 (let ((?x90 (* l_0_0_2 l_0_0_2)))
 (let ((?x119 (* (* 2.0 l_0_0_2) l_0_0_4)))
 (let ((?x115 (* l_0_0_12 l_0_0_12)))
 (let ((?x116 (- (- (- _a_1_ (* l_0_0_10 l_0_0_10)) (* l_0_0_11 l_0_0_11)) ?x115)))
 (let ((?x128 (- (+ (- (+ (- ?x116 ?x119) ?x90) ?x123) ?x98) (* (* (/ 1.0 8.0) l_0_0_4) l_0_0_4))))
 (let ((?x134 (- (- ?x128 (* (* (/ 1.0 8.0) l_0_0_5) l_0_0_5)) (* (* (/ 1.0 8.0) l_0_0_6) l_0_0_6))))
 (= ?x134 0.0))))))))))
(assert
 (let ((?x196 (* (* 1.0 l_0_0_3) l_0_0_3)))
 (let ((?x190 (* (* 1.0 l_0_0_2) l_0_0_2)))
 (let ((?x183 (- (- _a_2_ (* (* 2.0 l_0_0_10) l_0_0_8)) (* (* 2.0 l_0_0_11) l_0_0_9))))
 (let ((?x194 (- (- (- ?x183 (* (* (/ 1.0 4.0) l_0_0_2) l_0_0_4)) ?x190) (* (* (/ 1.0 4.0) l_0_0_3) l_0_0_5))))
 (= (- ?x194 ?x196) 0.0))))))
(assert
 (let ((?x196 (* (* 1.0 l_0_0_3) l_0_0_3)))
 (let ((?x190 (* (* 1.0 l_0_0_2) l_0_0_2)))
 (let ((?x236 (- (- (- (- _a_3_ (* (* (/ 1.0 4.0) l_0_0_1) l_0_0_2)) ?x190) ?x196) (* (* 2.0 l_0_0_7) l_0_0_8))))
 (= ?x236 0.0)))))
(assert
 (let ((?x263 (* l_0_0_7 l_0_0_7)))
 (let ((?x98 (* l_0_0_3 l_0_0_3)))
 (let ((?x90 (* l_0_0_2 l_0_0_2)))
 (let ((?x260 (- (- _a_4_ (* (* 2.0 l_0_0_1) l_0_0_2)) (* (* (/ 1.0 8.0) l_0_0_1) l_0_0_1))))
 (= (- (+ (+ ?x260 ?x90) ?x98) ?x263) 0.0))))))
(assert
 (let ((?x123 (* (* 2.0 l_0_0_3) l_0_0_5)))
 (let ((?x119 (* (* 2.0 l_0_0_2) l_0_0_4)))
 (let ((?x284 (- (- _a_5_ (* (* 2.0 l_0_0_1) l_0_0_2)) (* (* (/ 1.0 4.0) l_0_0_1) l_0_0_4))))
 (= (- (- (- ?x284 (* (* 2.0 l_0_0_10) l_0_0_7)) ?x119) ?x123) 0.0)))))
(assert
 (let ((?x271 (* l_0_0_1 l_0_0_1)))
 (= ?x271 0.0)))
(assert
 (let ((?x311 (* (* 1.0 l_0_0_1) l_0_0_1)))
 (let ((?x255 (* 2.0 l_0_0_1)))
 (let ((?x256 (* ?x255 l_0_0_2)))
 (= (- ?x256 ?x311) 0.0)))))
(assert
 (let ((?x255 (* 2.0 l_0_0_1)))
 (let ((?x317 (* ?x255 l_0_0_4)))
 (= ?x317 0.0))))
(assert
 (let ((?x123 (* (* 2.0 l_0_0_3) l_0_0_5)))
 (let ((?x119 (* (* 2.0 l_0_0_2) l_0_0_4)))
 (let ((?x311 (* (* 1.0 l_0_0_1) l_0_0_1)))
 (= (+ (+ (- (* (* (- 2.0) l_0_0_1) l_0_0_4) ?x311) ?x119) ?x123) 0.0)))))
(assert
 (let ((?x171 (* l_0_0_6 l_0_0_6)))
 (let ((?x165 (* l_0_0_5 l_0_0_5)))
 (= (+ (+ (+ (* l_0_0_1 l_0_0_1) (* l_0_0_4 l_0_0_4)) ?x165) ?x171) 0.0))))
(assert
 (let ((?x345 (* (* 1.0 l_0_0_6) l_0_0_6)))
 (let ((?x342 (* (* 1.0 l_0_0_5) l_0_0_5)))
 (let ((?x339 (* (* 1.0 l_0_0_4) l_0_0_4)))
 (let ((?x255 (* 2.0 l_0_0_1)))
 (let ((?x317 (* ?x255 l_0_0_4)))
 (let ((?x256 (* ?x255 l_0_0_2)))
 (= (- (- (- (- ?x256 ?x317) ?x339) ?x342) ?x345) 0.0))))))))
(assert
 (let ((?x255 (* 2.0 l_0_0_1)))
 (let ((?x317 (* ?x255 l_0_0_4)))
 (= ?x317 0.0))))
(assert
 (let ((?x345 (* (* 1.0 l_0_0_6) l_0_0_6)))
 (let ((?x342 (* (* 1.0 l_0_0_5) l_0_0_5)))
 (let ((?x339 (* (* 1.0 l_0_0_4) l_0_0_4)))
 (let ((?x123 (* (* 2.0 l_0_0_3) l_0_0_5)))
 (let ((?x119 (* (* 2.0 l_0_0_2) l_0_0_4)))
 (= (- (- (- (+ ?x119 ?x123) ?x339) ?x342) ?x345) 0.0)))))))
(assert
 (let ((?x171 (* l_0_0_6 l_0_0_6)))
 (= (+ (+ (* l_0_0_4 l_0_0_4) (* l_0_0_5 l_0_0_5)) ?x171) 0.0)))
(assert
 (>= l_0_0_1 0.0))
(assert
 (>= l_0_0_3 0.0))
(assert
 (>= l_0_0_6 0.0))
(assert
 (>= l_0_0_7 0.0))
(assert
 (>= l_0_0_9 0.0))
(assert
 (>= l_0_0_12 0.0))
(assert
 (let ((?x394 (* l_0_1_15 l_0_1_15)))
 (let ((?x392 (* l_0_1_14 l_0_1_14)))
 (let ((?x393 (- (* (- _a_0_) (+ (* l_0_1_2 l_0_1_2) (* l_0_1_3 l_0_1_3))) ?x392)))
 (let ((?x401 (+ (+ (- ?x393 ?x394) (* 1.0 (* l_0_1_8 l_0_1_8))) (* 1.0 (* l_0_1_9 l_0_1_9)))))
 (= (+ ?x401 4.0) 0.0))))))
(assert
 (let ((?x449 (* l_0_1_18 l_0_1_18)))
 (let ((?x447 (* l_0_1_17 l_0_1_17)))
 (let ((?x445 (* l_0_1_16 l_0_1_16)))
 (let ((?x433 (+ (* (* 2.0 l_0_1_2) l_0_1_4) (* (* 2.0 l_0_1_3) l_0_1_5))))
 (let ((?x424 (* l_0_1_6 l_0_1_6)))
 (let ((?x425 (+ (+ (* l_0_1_4 l_0_1_4) (* l_0_1_5 l_0_1_5)) ?x424)))
 (let ((?x387 (- _a_0_)))
 (let ((?x428 (- (* ?x387 ?x425) (* _a_1_ (+ (* l_0_1_2 l_0_1_2) (* l_0_1_3 l_0_1_3))))))
 (let ((?x441 (+ (+ (- ?x428 (* _a_2_ ?x433)) (* 1.0 (* l_0_1_10 l_0_1_10))) (* 1.0 (* l_0_1_11 l_0_1_11)))))
 (let ((?x450 (- (- (- (+ ?x441 (* 1.0 (* l_0_1_12 l_0_1_12))) ?x445) ?x447) ?x449)))
 (= (- ?x450 1.0) 0.0))))))))))))
(assert
 (let ((?x515 (* l_0_1_13 l_0_1_13)))
 (let ((?x512 (- (* (* (- _a_0_) l_0_1_1) l_0_1_1) (* (* (* 2.0 _a_3_) l_0_1_1) l_0_1_2))))
 (let ((?x514 (- ?x512 (* _a_4_ (+ (* l_0_1_2 l_0_1_2) (* l_0_1_3 l_0_1_3))))))
 (= (+ (- ?x514 ?x515) (* 1.0 (* l_0_1_7 l_0_1_7))) 0.0)))))
(assert
 (let ((?x551 (- (* (* (* (- 2.0) _a_0_) l_0_1_1) l_0_1_2) (* _a_3_ (+ (* l_0_1_2 l_0_1_2) (* l_0_1_3 l_0_1_3))))))
 (let ((?x557 (+ (- ?x551 (* (* 2.0 l_0_1_13) l_0_1_14)) (* (* 2.0 l_0_1_7) l_0_1_8))))
 (= ?x557 0.0))))
(assert
 (let ((?x433 (+ (* (* 2.0 l_0_1_2) l_0_1_4) (* (* 2.0 l_0_1_3) l_0_1_5))))
 (let ((?x588 (- (* (* (* (- 2.0) _a_0_) l_0_1_1) l_0_1_4) (* (* (* 2.0 _a_2_) l_0_1_1) l_0_1_2))))
 (let ((?x592 (- (- ?x588 (* _a_3_ ?x433)) (* _a_5_ (+ (* l_0_1_2 l_0_1_2) (* l_0_1_3 l_0_1_3))))))
 (let ((?x597 (- (+ ?x592 (* (* 2.0 l_0_1_10) l_0_1_7)) (* (* 2.0 l_0_1_13) l_0_1_16))))
 (= ?x597 0.0))))))
(assert
 (let ((?x433 (+ (* (* 2.0 l_0_1_2) l_0_1_4) (* (* 2.0 l_0_1_3) l_0_1_5))))
 (let ((?x387 (- _a_0_)))
 (let ((?x654 (- (* ?x387 ?x433) (* _a_2_ (+ (* l_0_1_2 l_0_1_2) (* l_0_1_3 l_0_1_3))))))
 (let ((?x659 (+ (+ ?x654 (* (* 2.0 l_0_1_10) l_0_1_8)) (* (* 2.0 l_0_1_11) l_0_1_9))))
 (let ((?x665 (- (- ?x659 (* (* 2.0 l_0_1_14) l_0_1_16)) (* (* 2.0 l_0_1_15) l_0_1_17))))
 (= ?x665 0.0)))))))
(assert
 (let ((?x424 (* l_0_1_6 l_0_1_6)))
 (let ((?x425 (+ (+ (* l_0_1_4 l_0_1_4) (* l_0_1_5 l_0_1_5)) ?x424)))
 (let ((?x713 (- (- (* (* (- _a_1_) l_0_1_1) l_0_1_1) (* _a_4_ ?x425)) (* (* (* 2.0 _a_5_) l_0_1_1) l_0_1_4))))
 (= ?x713 0.0)))))
(assert
 (let ((?x433 (+ (* (* 2.0 l_0_1_2) l_0_1_4) (* (* 2.0 l_0_1_3) l_0_1_5))))
 (let ((?x424 (* l_0_1_6 l_0_1_6)))
 (let ((?x425 (+ (+ (* l_0_1_4 l_0_1_4) (* l_0_1_5 l_0_1_5)) ?x424)))
 (let ((?x746 (- (* (* (* (- 2.0) _a_1_) l_0_1_1) l_0_1_2) (* (* (* 2.0 _a_2_) l_0_1_1) l_0_1_4))))
 (= (- (- ?x746 (* _a_3_ ?x425)) (* _a_5_ ?x433)) 0.0))))))
(assert
 (let ((?x424 (* l_0_1_6 l_0_1_6)))
 (let ((?x425 (+ (+ (* l_0_1_4 l_0_1_4) (* l_0_1_5 l_0_1_5)) ?x424)))
 (= (- (* (* (* (- 2.0) _a_1_) l_0_1_1) l_0_1_4) (* _a_5_ ?x425)) 0.0))))
(assert
 (let ((?x424 (* l_0_1_6 l_0_1_6)))
 (let ((?x425 (+ (+ (* l_0_1_4 l_0_1_4) (* l_0_1_5 l_0_1_5)) ?x424)))
 (let ((?x433 (+ (* (* 2.0 l_0_1_2) l_0_1_4) (* (* 2.0 l_0_1_3) l_0_1_5))))
 (let ((?x705 (- _a_1_)))
 (= (- (* ?x705 ?x433) (* _a_2_ ?x425)) 0.0))))))
(assert
 (let ((?x424 (* l_0_1_6 l_0_1_6)))
 (let ((?x425 (+ (+ (* l_0_1_4 l_0_1_4) (* l_0_1_5 l_0_1_5)) ?x424)))
 (let ((?x705 (- _a_1_)))
 (= (* ?x705 ?x425) 0.0)))))
(assert
 (let ((?x433 (+ (* (* 2.0 l_0_1_2) l_0_1_4) (* (* 2.0 l_0_1_3) l_0_1_5))))
 (let ((?x864 (- (* (* (- _a_2_) l_0_1_1) l_0_1_1) (* (* (* 2.0 _a_3_) l_0_1_1) l_0_1_4))))
 (let ((?x868 (- (- ?x864 (* _a_4_ ?x433)) (* (* (* 2.0 _a_5_) l_0_1_1) l_0_1_2))))
 (= ?x868 0.0)))))
(assert
 (let ((?x914 (- (* (* (- _a_3_) l_0_1_1) l_0_1_1) (* (* (* 2.0 _a_4_) l_0_1_1) l_0_1_2))))
 (= ?x914 0.0)))
(assert
 (= (* (* (- _a_4_) l_0_1_1) l_0_1_1) 0.0))
(assert
 (let ((?x938 (- (* (* (* (- 2.0) _a_4_) l_0_1_1) l_0_1_4) (* (* _a_5_ l_0_1_1) l_0_1_1))))
 (= ?x938 0.0)))
(assert
 (>= l_0_1_1 0.0))
(assert
 (>= l_0_1_3 0.0))
(assert
 (>= l_0_1_6 0.0))
(assert
 (>= l_0_1_7 0.0))
(assert
 (>= l_0_1_9 0.0))
(assert
 (>= l_0_1_12 0.0))
(assert
 (>= l_0_1_13 0.0))
(assert
 (>= l_0_1_15 0.0))
(assert
 (>= l_0_1_18 0.0))
(assert
 (let ((?x965 (* l_0_2_15 l_0_2_15)))
 (let ((?x963 (* l_0_2_14 l_0_2_14)))
 (let ((?x962 (+ (* (- _a_0_) (+ (* l_0_2_2 l_0_2_2) (* l_0_2_3 l_0_2_3))) _a_0_)))
 (let ((?x972 (- (- (- (- ?x962 ?x963) ?x965) (* (* 1.0 l_0_2_8) l_0_2_8)) (* (* 1.0 l_0_2_9) l_0_2_9))))
 (= ?x972 0.0))))))
(assert
 (let ((?x1011 (* l_0_2_13 l_0_2_13)))
 (let ((?x1009 (* (/ 888888888888889.0 10000000000000000.0) _a_5_)))
 (let ((?x1006 (* (/ 790123456790123.0 1000000000000000.0) _a_4_)))
 (let ((?x1002 (- (+ (* (* (- _a_0_) l_0_2_1) l_0_2_1) (* (/ 1.0 100.0) _a_1_)) (* (* (* 2.0 _a_3_) l_0_2_1) l_0_2_2))))
 (let ((?x1004 (- ?x1002 (* _a_4_ (+ (* l_0_2_2 l_0_2_2) (* l_0_2_3 l_0_2_3))))))
 (let ((?x1015 (- (- (+ (+ ?x1004 ?x1006) ?x1009) ?x1011) (* (* 1.0 l_0_2_7) l_0_2_7))))
 (= ?x1015 0.0))))))))
(assert
 (let ((?x1068 (* (/ 198611111111111.0 250000000000000.0) _a_5_)))
 (let ((?x1063 (* (/ 493827160493827.0 5000000000000000.0) _a_4_)))
 (let ((?x1059 (+ (* (* 2.0 l_0_2_2) l_0_2_4) (* (* 2.0 l_0_2_3) l_0_2_5))))
 (let ((?x1054 (- (+ (* (* (* (- 2.0) _a_0_) l_0_2_1) l_0_2_4) (* (/ 9.0 50.0) _a_1_)) (* (* (* 2.0 _a_2_) l_0_2_1) l_0_2_2))))
 (let ((?x1066 (- (- (- ?x1054 (* _a_3_ ?x1059)) ?x1063) (* _a_5_ (+ (* l_0_2_2 l_0_2_2) (* l_0_2_3 l_0_2_3))))))
 (let ((?x1075 (- (- (+ ?x1066 ?x1068) (* (* 2.0 l_0_2_10) l_0_2_7)) (* (* 2.0 l_0_2_13) l_0_2_16))))
 (= ?x1075 0.0))))))))
(assert
 (let ((?x1170 (* l_0_2_18 l_0_2_18)))
 (let ((?x1168 (* l_0_2_17 l_0_2_17)))
 (let ((?x1166 (* l_0_2_16 l_0_2_16)))
 (let ((?x1155 (* (/ 1.0 20.0) _a_5_)))
 (let ((?x1152 (* (/ 154320987654321.0 50000000000000000.0) _a_4_)))
 (let ((?x1059 (+ (* (* 2.0 l_0_2_2) l_0_2_4) (* (* 2.0 l_0_2_3) l_0_2_5))))
 (let ((?x1147 (* (/ 81.0 100.0) _a_1_)))
 (let ((?x1141 (* l_0_2_6 l_0_2_6)))
 (let ((?x1142 (+ (+ (* l_0_2_4 l_0_2_4) (* l_0_2_5 l_0_2_5)) ?x1141)))
 (let ((?x387 (- _a_0_)))
 (let ((?x1145 (- (* ?x387 ?x1142) (* _a_1_ (+ (* l_0_2_2 l_0_2_2) (* l_0_2_3 l_0_2_3))))))
 (let ((?x1159 (- (- (+ (- (+ ?x1145 ?x1147) (* _a_2_ ?x1059)) ?x1152) ?x1155) (* (* 1.0 l_0_2_10) l_0_2_10))))
 (let ((?x1165 (- (- ?x1159 (* (* 1.0 l_0_2_11) l_0_2_11)) (* (* 1.0 l_0_2_12) l_0_2_12))))
 (= (- (- (- ?x1165 ?x1166) ?x1168) ?x1170) 0.0)))))))))))))))
(assert
 (let ((?x1246 (* (/ 888888888888889.0 1000000000000000.0) _a_3_)))
 (let ((?x1244 (- (+ (* (* (* (- 2.0) _a_0_) l_0_2_1) l_0_2_2) (* (/ 1.0 10.0) _a_2_)) (* _a_3_ (+ (* l_0_2_2 l_0_2_2) (* l_0_2_3 l_0_2_3))))))
 (let ((?x1252 (- (- (+ ?x1244 ?x1246) (* (* 2.0 l_0_2_13) l_0_2_14)) (* (* 2.0 l_0_2_7) l_0_2_8))))
 (= ?x1252 0.0)))))
(assert
 (let ((?x1292 (* (/ 138888888888889.0 2500000000000000.0) _a_3_)))
 (let ((?x1289 (* (/ 9.0 10.0) _a_2_)))
 (let ((?x1059 (+ (* (* 2.0 l_0_2_2) l_0_2_4) (* (* 2.0 l_0_2_3) l_0_2_5))))
 (let ((?x387 (- _a_0_)))
 (let ((?x1287 (- (* ?x387 ?x1059) (* _a_2_ (+ (* l_0_2_2 l_0_2_2) (* l_0_2_3 l_0_2_3))))))
 (let ((?x1298 (- (- (- (+ ?x1287 ?x1289) ?x1292) (* (* 2.0 l_0_2_10) l_0_2_8)) (* (* 2.0 l_0_2_11) l_0_2_9))))
 (let ((?x1304 (- (- ?x1298 (* (* 2.0 l_0_2_14) l_0_2_16)) (* (* 2.0 l_0_2_15) l_0_2_17))))
 (= ?x1304 0.0)))))))))
(assert
 (let ((?x1141 (* l_0_2_6 l_0_2_6)))
 (let ((?x1142 (+ (+ (* l_0_2_4 l_0_2_4) (* l_0_2_5 l_0_2_5)) ?x1141)))
 (let ((?x1360 (- (- (* (* (- _a_1_) l_0_2_1) l_0_2_1) (* _a_4_ ?x1142)) (* (* (* 2.0 _a_5_) l_0_2_1) l_0_2_4))))
 (= ?x1360 0.0)))))
(assert
 (let ((?x1059 (+ (* (* 2.0 l_0_2_2) l_0_2_4) (* (* 2.0 l_0_2_3) l_0_2_5))))
 (let ((?x1141 (* l_0_2_6 l_0_2_6)))
 (let ((?x1142 (+ (+ (* l_0_2_4 l_0_2_4) (* l_0_2_5 l_0_2_5)) ?x1141)))
 (let ((?x1391 (- (* (* (* (- 2.0) _a_1_) l_0_2_1) l_0_2_2) (* (* (* 2.0 _a_2_) l_0_2_1) l_0_2_4))))
 (= (- (- ?x1391 (* _a_3_ ?x1142)) (* _a_5_ ?x1059)) 0.0))))))
(assert
 (let ((?x1141 (* l_0_2_6 l_0_2_6)))
 (let ((?x1142 (+ (+ (* l_0_2_4 l_0_2_4) (* l_0_2_5 l_0_2_5)) ?x1141)))
 (= (- (* (* (* (- 2.0) _a_1_) l_0_2_1) l_0_2_4) (* _a_5_ ?x1142)) 0.0))))
(assert
 (let ((?x1141 (* l_0_2_6 l_0_2_6)))
 (let ((?x1142 (+ (+ (* l_0_2_4 l_0_2_4) (* l_0_2_5 l_0_2_5)) ?x1141)))
 (let ((?x1059 (+ (* (* 2.0 l_0_2_2) l_0_2_4) (* (* 2.0 l_0_2_3) l_0_2_5))))
 (let ((?x705 (- _a_1_)))
 (= (- (* ?x705 ?x1059) (* _a_2_ ?x1142)) 0.0))))))
(assert
 (let ((?x1141 (* l_0_2_6 l_0_2_6)))
 (let ((?x1142 (+ (+ (* l_0_2_4 l_0_2_4) (* l_0_2_5 l_0_2_5)) ?x1141)))
 (let ((?x705 (- _a_1_)))
 (= (* ?x705 ?x1142) 0.0)))))
(assert
 (let ((?x1059 (+ (* (* 2.0 l_0_2_2) l_0_2_4) (* (* 2.0 l_0_2_3) l_0_2_5))))
 (let ((?x1508 (- (* (* (- _a_2_) l_0_2_1) l_0_2_1) (* (* (* 2.0 _a_3_) l_0_2_1) l_0_2_4))))
 (let ((?x1512 (- (- ?x1508 (* _a_4_ ?x1059)) (* (* (* 2.0 _a_5_) l_0_2_1) l_0_2_2))))
 (= ?x1512 0.0)))))
(assert
 (let ((?x1555 (- (* (* (- _a_3_) l_0_2_1) l_0_2_1) (* (* (* 2.0 _a_4_) l_0_2_1) l_0_2_2))))
 (= ?x1555 0.0)))
(assert
 (= (* (* (- _a_4_) l_0_2_1) l_0_2_1) 0.0))
(assert
 (let ((?x1575 (- (* (* (* (- 2.0) _a_4_) l_0_2_1) l_0_2_4) (* (* _a_5_ l_0_2_1) l_0_2_1))))
 (= ?x1575 0.0)))
(assert
 (>= l_0_2_1 0.0))
(assert
 (>= l_0_2_3 0.0))
(assert
 (>= l_0_2_6 0.0))
(assert
 (>= l_0_2_7 0.0))
(assert
 (>= l_0_2_9 0.0))
(assert
 (>= l_0_2_12 0.0))
(assert
 (>= l_0_2_13 0.0))
(assert
 (>= l_0_2_15 0.0))
(assert
 (>= l_0_2_18 0.0))
(check-sat)
(get-model)